NAME: tsp35_21
COMMENT: 35-tsp problem (Padberg/Rinaldi)
TYPE: TSP
DIMENSION: 35
EDGE_WEIGHT_TYPE : EUC_2D
NODE_COORD_SECTION
1 28 18
2 8 6
3 19 7
4 16 38
5 3 10
6 13 1
7 7 37
8 6 22
9 4 6
10 2 17
11 28 0
12 18 17
13 22 3
14 15 3
15 18 24
16 26 6
17 20 35
18 25 4
19 34 29
20 34 36
21 11 33
22 5 4
23 36 10
24 15 17
25 14 6
26 32 8
27 1 18
28 2 37
29 32 35
30 8 25
31 29 18
32 37 29
33 27 28
34 27 7
35 14 18
